variable temp equal 300
# 简单 2-D 玩具体系，用 Lennard-Jones
units metal
atom_style atomic
boundary p p p

region box block -20 20 -20 20 -20 20
create_box 1 box
#create_atoms 1 random 2 12345 box
create_atoms 1 single 0.0 0.0 0.0
create_atoms 1 single 6.0 0.0 0.0

mass 1 16
pair_style lj/cut 10.0
pair_coeff 1 1 0.1947 3.541

# 1. 定义两个原子组
group atom10 id 1
group atom20 id 2

# 2. 计算两个组之间的相互作用能量 (仅计算 pair 势能)
compute E_inter atom10 group/group atom20 pair yes

# 3. 输出该能量值
# 格式：c_E_inter 是一个 global scalar，可以直接输出
thermo_style custom step c_E_inter
thermo 1

run 1