#variable seed equal 12345
variable temp equal 1000
units metal
atom_style atomic
boundary p p p
#newton off

lattice fcc 3.26
region box block 0 20 0 20 0 20
create_box 1 box
create_atoms 1 box

mass 1 39.95
pair_style lj/cut 10.0
pair_coeff 1 1 0.0104 3.405

#group zero_group id 34 56 256
group zero_group region box
timestep 0.001
#velocity all create ${temp} ${seed}
# 加载插件
# 调用 metad fix：fix ID group metad sigma height biasf pace cv_dim nbin_num continue(bool)
fix 2 all plumed plumedfile plumed.dat
fix             1 all nvt  temp ${temp} ${temp} 100.0


thermo 1000
thermo_style custom step temp epair etotal press
dump 1 all atom 100 dump.metad.lammpstrj

run 3
